p tw 20 112
0 1
0 2
0 4
0 16
0 10
0 11
0 14
0 15
0 5
0 3
1 2
1 4
1 5
1 12
1 6
1 14
1 15
1 3
1 17
1 11
1 13
2 3
2 14
2 15
2 18
2 16
2 5
2 12
2 6
2 7
2 8
2 17
2 19
3 4
3 5
3 6
3 7
3 14
3 15
3 16
3 8
3 12
3 17
3 19
3 11
4 5
4 16
4 11
4 15
4 9
4 18
4 19
5 11
5 12
5 15
5 6
5 17
5 7
5 13
5 16
5 9
5 10
5 14
6 7
6 17
6 14
6 16
6 8
7 13
7 9
7 12
7 16
7 14
7 8
7 11
7 17
8 9
8 10
8 13
8 11
8 17
8 12
9 10
9 13
9 12
9 11
9 18
10 11
10 12
10 17
11 12
11 14
11 17
11 15
11 13
12 15
12 17
12 18
12 19
12 13
12 14
12 16
13 15
14 16
14 17
14 18
14 19
15 17
15 18
15 16
15 19
17 18
